unsat
(:max-memory          18.04
 :memory              17.91
 :nlsat-conflicts     3
 :nlsat-learned-added 2
 :nlsat-propagations  11
 :nlsat-stages        4
 :num-allocs          5278
 :rlimit-count        1294
 :time                0.00
 :total-time          0.01)
